ID_groupA
17611
180458
315100
271472
271472
17611
17611
17611
17611
180458
315100
271472
17611
17611
17611
17611
271472
17611
17611
17611
17611
17611
17611
17611
17611
17611
17611
180458
180458
180458
17611
17611
17611
180458
180458
180458
180458
180458
17611
315100
271472
315100
315100
17611
180458
315100
315100
315100
271472
17611
271472
271472
271472
17611
271472
315100
271472
271472
271472
271472
271472
271472
17611
17611
271472
271472
271472
271472
17611
17611
17611
17611
17611
271472
271472
271472
17611
17611
17611
17611
271472
271472
271472
17611
17611
17611
17611
17611
17611
17611
180458
315100
17611
17611
17611
315100
315100
271472
17611
315100
271472
17611
271472
17611
17611
